NAME /Users/henri/Research/solvers/instances/idol-instances/robust/collection/spp_dkp_Lefebvre_et_al_2026/shortest_path_5_1/uncertainty_sets/discrete_knapsack
ROWS
 N  OBJ
 L  primal_lower
COLUMNS
    MARKER    'MARKER'                 'INTORG'
    y[0,2]     OBJ        0
    y[0,2]     primal_lower -0.66
    y[0,3]     OBJ        0
    y[0,3]     primal_lower -3.5
    y[1,2]     OBJ        0
    y[1,2]     primal_lower -0.77
    y[1,3]     OBJ        0
    y[1,3]     primal_lower -1.38
    y[1,4]     OBJ        0
    y[1,4]     primal_lower -1.88
    y[2,0]     OBJ        0
    y[2,0]     primal_lower -4.94
    y[2,1]     OBJ        0
    y[2,1]     primal_lower -3.83
    y[2,3]     OBJ        0
    y[2,3]     primal_lower -3.11
    y[2,4]     OBJ        0
    y[2,4]     primal_lower -0.17
    y[3,0]     OBJ        0
    y[3,0]     primal_lower -4.22
    y[3,1]     OBJ        0
    y[3,1]     primal_lower -2.27
    y[3,2]     OBJ        0
    y[3,2]     primal_lower -4.61
    y[3,4]     OBJ        0
    y[3,4]     primal_lower -1.46
    y[4,1]     OBJ        0
    y[4,1]     primal_lower -0.33
    y[4,2]     OBJ        0
    y[4,2]     primal_lower -4.98
    y[4,3]     OBJ        0
    y[4,3]     primal_lower -1.27
    u[0,2]     OBJ        0
    u[0,2]     primal_lower 58
    u[0,3]     OBJ        0
    u[0,3]     primal_lower 35
    u[1,2]     OBJ        0
    u[1,2]     primal_lower 35
    u[1,3]     OBJ        0
    u[1,3]     primal_lower 51
    u[1,4]     OBJ        0
    u[1,4]     primal_lower 73
    u[2,0]     OBJ        0
    u[2,0]     primal_lower 49
    u[2,1]     OBJ        0
    u[2,1]     primal_lower 30
    u[2,3]     OBJ        0
    u[2,3]     primal_lower 85
    u[2,4]     OBJ        0
    u[2,4]     primal_lower 39
    u[3,0]     OBJ        0
    u[3,0]     primal_lower 82
    u[3,1]     OBJ        0
    u[3,1]     primal_lower 92
    u[3,2]     OBJ        0
    u[3,2]     primal_lower 58
    u[3,4]     OBJ        0
    u[3,4]     primal_lower 4
    u[4,1]     OBJ        0
    u[4,1]     primal_lower 58
    u[4,2]     OBJ        0
    u[4,2]     primal_lower 90
    u[4,3]     OBJ        0
    u[4,3]     primal_lower 76
    MARKER    'MARKER'                 'INTEND'
RHS
    RHS       primal_lower 92
BOUNDS
 LI BND       y[0,2]     0
 UI BND       y[0,2]     1
 LI BND       y[0,3]     0
 UI BND       y[0,3]     1
 LI BND       y[1,2]     0
 UI BND       y[1,2]     1
 LI BND       y[1,3]     0
 UI BND       y[1,3]     1
 LI BND       y[1,4]     0
 UI BND       y[1,4]     1
 LI BND       y[2,0]     0
 UI BND       y[2,0]     1
 LI BND       y[2,1]     0
 UI BND       y[2,1]     1
 LI BND       y[2,3]     0
 UI BND       y[2,3]     1
 LI BND       y[2,4]     0
 UI BND       y[2,4]     1
 LI BND       y[3,0]     0
 UI BND       y[3,0]     1
 LI BND       y[3,1]     0
 UI BND       y[3,1]     1
 LI BND       y[3,2]     0
 UI BND       y[3,2]     1
 LI BND       y[3,4]     0
 UI BND       y[3,4]     1
 LI BND       y[4,1]     0
 UI BND       y[4,1]     1
 LI BND       y[4,2]     0
 UI BND       y[4,2]     1
 LI BND       y[4,3]     0
 UI BND       y[4,3]     1
 LI BND       u[0,2]     0
 UI BND       u[0,2]     1
 LI BND       u[0,3]     0
 UI BND       u[0,3]     1
 LI BND       u[1,2]     0
 UI BND       u[1,2]     1
 LI BND       u[1,3]     0
 UI BND       u[1,3]     1
 LI BND       u[1,4]     0
 UI BND       u[1,4]     1
 LI BND       u[2,0]     0
 UI BND       u[2,0]     1
 LI BND       u[2,1]     0
 UI BND       u[2,1]     1
 LI BND       u[2,3]     0
 UI BND       u[2,3]     1
 LI BND       u[2,4]     0
 UI BND       u[2,4]     1
 LI BND       u[3,0]     0
 UI BND       u[3,0]     1
 LI BND       u[3,1]     0
 UI BND       u[3,1]     1
 LI BND       u[3,2]     0
 UI BND       u[3,2]     1
 LI BND       u[3,4]     0
 UI BND       u[3,4]     1
 LI BND       u[4,1]     0
 UI BND       u[4,1]     1
 LI BND       u[4,2]     0
 UI BND       u[4,2]     1
 LI BND       u[4,3]     0
 UI BND       u[4,3]     1
ENDATA
